
List of user-set options:

                                    Name   Value                used
                           compl_inf_tol = 1                     yes
                         constr_viol_tol = 1                     yes
                            dual_inf_tol = 1000                  yes
                           linear_solver = ma97                  yes
                              ma86_small = 1e-30                  no
                                  ma86_u = 0.0001                 no
                              ma97_order = best                  yes
                              ma97_small = 1e-30                 yes
                            ma97_switch1 = at_start              yes
                            ma97_switch2 = od_hd_reuse           yes
                                  ma97_u = 1e-06                 yes
                               ma97_umax = 0.5                   yes
                                max_iter = 2000                  yes
                    max_refinement_steps = 20                    yes
                    min_refinement_steps = 5                     yes
                                 mu_init = 1e-06                 yes
           mu_superlinear_decrease_power = 1.25                  yes
                   nlp_scaling_min_value = 1e-08                 yes
                        option_file_name = Preset_Case:_73_NCP.opt  yes
                             output_file = ./tmp/Preset_Case:_73_NCP.output  yes
                      print_user_options = yes                   yes
        required_infeasibility_reduction = 1                      no
                                     tol = 1e-08                 yes
                   warm_start_bound_frac = 1e-20                 yes
                   warm_start_bound_push = 1e-20                 yes
                   warm_start_init_point = yes                   yes
              warm_start_mult_bound_push = 1e-20                 yes
                warm_start_mult_init_max = 1e+40                 yes
             warm_start_slack_bound_frac = 1e-20                 yes
             warm_start_slack_bound_push = 1e-20                 yes

******************************************************************************
This program contains Ipopt, a library for large-scale nonlinear optimization.
 Ipopt is released as open source code under the Eclipse Public License (EPL).
         For more information visit http://projects.coin-or.org/Ipopt
******************************************************************************

This is Ipopt version 3.12.10, running with linear solver ma97.

Number of nonzeros in equality constraint Jacobian...:   117140
Number of nonzeros in inequality constraint Jacobian.:      213
Number of nonzeros in Lagrangian Hessian.............:    47462

Total number of variables............................:    29971
                     variables with only lower bounds:    11312
                variables with lower and upper bounds:    15132
                     variables with only upper bounds:        0
Total number of equality constraints.................:    29864
Total number of inequality constraints...............:       25
        inequality constraints with only lower bounds:        4
   inequality constraints with lower and upper bounds:        0
        inequality constraints with only upper bounds:       21

iter    objective    inf_pr   inf_du lg(mu)  ||d||  lg(rg) alpha_du alpha_pr  ls
   0 -4.7600234e-02 8.52e-02 1.00e+00  -6.0 0.00e+00    -  0.00e+00 0.00e+00   0
   1r-4.7600234e-02 8.52e-02 9.99e+02  -1.1 0.00e+00  -4.0 0.00e+00 4.76e-23R 18
In iteration 1, 33 Slacks too small, adjusting variable bounds
   2r-4.7600234e-02 8.52e-02 9.99e+02  -1.1 3.18e+11    -  7.84e-14 1.48e-27f 23
   3r-4.7600234e-02 8.52e-02 9.99e+02  -1.1 0.00e+00    -  0.00e+00 8.18e-09R  2
   4r-4.7605004e-02 8.52e-02 9.99e+02  -1.1 7.38e+03    -  1.68e-06 2.46e-07f  1
   5 -4.7604998e-02 8.52e-02 4.41e+06  -6.0 5.29e+01    -  4.46e-02 2.09e-05h  1
   6 -4.7607238e-02 8.52e-02 6.93e+06  -6.0 1.16e+03    -  2.26e-05 3.56e-05h  1
   7 -4.9255406e-02 6.03e+00 6.67e+06  -6.0 1.16e+03    -  1.19e-04 3.03e-02f  1
   8 -4.9248037e-02 6.02e+00 6.67e+06  -6.0 1.29e+03    -  5.22e-04 8.51e-04h  1
   9r-4.9248037e-02 6.02e+00 9.99e+02  -0.1 0.00e+00  -1.8 0.00e+00 7.41e-09R  2
iter    objective    inf_pr   inf_du lg(mu)  ||d||  lg(rg) alpha_du alpha_pr  ls
  10r-4.9247111e-02 6.02e+00 5.58e+03  -0.1 7.84e+03    -  1.57e-07 2.72e-07f  1
  11r-4.9247111e-02 6.02e+00 9.99e+02  -0.1 0.00e+00    -  0.00e+00 7.14e-09R  9
  12r-4.9247501e-02 6.02e+00 7.51e+03  -0.1 1.30e+04    -  1.11e-06 1.64e-08f  1
  13 -4.9247503e-02 6.02e+00 1.94e+05  -6.0 4.43e+01    -  2.29e-03 1.68e-05h  1
  14 -4.9248100e-02 5.95e+00 1.22e+08  -6.0 4.22e+02    -  1.83e-05 1.14e-02h  1
  15 -4.9248118e-02 5.95e+00 1.22e+08  -6.0 3.94e+02    -  1.10e-02 2.79e-04h  1
  16 -4.9248153e-02 5.95e+00 1.22e+08  -6.0 4.02e+02    -  1.35e-02 6.49e-04h  1
  17 -4.9247535e-02 5.95e+00 1.22e+08  -6.0 8.94e+02    -  1.03e-03 1.24e-04h  1
  18 -4.9195709e-02 5.88e+00 1.21e+08  -6.0 8.91e+02    -  5.97e-06 1.10e-02h  1
  19 -4.9198774e-02 5.86e+00 1.20e+08  -6.0 6.84e+02    -  1.32e-02 3.28e-03h  1
iter    objective    inf_pr   inf_du lg(mu)  ||d||  lg(rg) alpha_du alpha_pr  ls
  20 -4.9297855e-02 5.64e+00 1.16e+08  -6.0 6.47e+02    -  3.60e-03 3.70e-02f  1
  21 -4.9370530e-02 5.53e+00 1.13e+08  -6.0 4.14e+02    -  8.34e-03 2.01e-02h  1
Error in an AMPL evaluation. Run with "halt_on_ampl_error yes" to see details.
Warning: Cutting back alpha due to evaluation error
  22 -4.9374721e-02 5.40e+00 1.11e+08  -6.0 3.60e+02    -  5.75e-02 2.28e-02h  2
Error in an AMPL evaluation. Run with "halt_on_ampl_error yes" to see details.
Warning: Cutting back alpha due to evaluation error
  23 -4.9393904e-02 5.32e+00 1.09e+08  -6.0 3.05e+02    -  3.27e-02 1.59e-02h  2
Error in an AMPL evaluation. Run with "halt_on_ampl_error yes" to see details.
Warning: Cutting back alpha due to evaluation error
  24 -4.9411928e-02 5.25e+00 1.08e+08  -6.0 2.82e+02    -  7.11e-02 1.34e-02h  2
Error in an AMPL evaluation. Run with "halt_on_ampl_error yes" to see details.
Warning: Cutting back alpha due to evaluation error
  25 -4.9425671e-02 5.17e+00 1.06e+08  -6.0 2.72e+02    -  2.84e-02 1.41e-02h  2
Error in an AMPL evaluation. Run with "halt_on_ampl_error yes" to see details.
Warning: Cutting back alpha due to evaluation error
  26 -4.9430962e-02 5.12e+00 1.05e+08  -6.0 4.00e+02    -  2.28e-08 1.02e-02f  2
  27 -4.9429896e-02 5.09e+00 1.04e+08  -6.0 1.43e+02  -2.2 1.30e-01 5.35e-03h  1
  28 -4.9417081e-02 4.76e+00 9.77e+07  -6.0 2.79e+02    -  1.35e-07 6.44e-02h  1
  29 -4.9415233e-02 4.74e+00 9.72e+07  -6.0 1.16e+02  -2.7 5.40e-03 5.39e-03h  1
iter    objective    inf_pr   inf_du lg(mu)  ||d||  lg(rg) alpha_du alpha_pr  ls
  30 -4.9285347e-02 4.65e+00 9.54e+07  -6.0 7.47e+02    -  4.86e-09 1.80e-02h  1
  31 -4.9273140e-02 4.46e+00 9.14e+07  -6.0 1.12e+02  -3.2 4.31e-02 4.19e-02h  1
  32r-4.9273140e-02 4.46e+00 9.99e+02  -0.2 0.00e+00  -2.8 0.00e+00 3.43e-08R  2
  33r-4.9205994e-02 4.45e+00 5.50e+03  -0.2 5.16e+04    -  3.15e-08 7.03e-07f  1
  34r-4.9219980e-02 4.45e+00 5.69e+03  -0.2 4.45e+03    -  4.65e-06 2.72e-06f  1
  35 -4.9219980e-02 4.45e+00 2.02e+05  -6.0 7.09e+01    -  1.27e-02 4.59e-06h  2
  36 -4.9220494e-02 4.40e+00 2.62e+08  -6.0 1.68e+02    -  8.84e-06 1.14e-02h  1
  37 -4.9219300e-02 4.15e+00 2.47e+08  -6.0 1.09e+02    -  2.58e-02 5.64e-02h  1
  38 -4.9207982e-02 3.94e+00 2.34e+08  -6.0 9.57e+01    -  3.09e-02 5.27e-02h  1
  39 -4.9191734e-02 3.78e+00 2.25e+08  -6.0 8.69e+01    -  4.09e-02 3.88e-02h  1
iter    objective    inf_pr   inf_du lg(mu)  ||d||  lg(rg) alpha_du alpha_pr  ls
  40 -4.9083734e-02 3.20e+00 1.90e+08  -6.0 8.12e+01    -  4.85e-02 1.55e-01h  1
  41 -4.9080720e-02 3.19e+00 1.90e+08  -6.0 2.07e+02    -  1.70e-01 1.85e-03h  1
  42 -4.8611826e-02 2.32e+00 1.39e+08  -6.0 2.05e+02    -  2.73e-01 2.69e-01h  1
  43r-4.8611826e-02 2.32e+00 1.00e+03  -0.5 0.00e+00    -  0.00e+00 3.21e-07R  4
  44r-4.8625708e-02 2.32e+00 1.23e+03  -0.5 3.65e+03    -  2.57e-05 1.55e-06f  1
  45 -4.8625682e-02 2.32e+00 1.99e+07  -6.0 9.75e+01    -  5.25e-01 4.23e-05h  1
  46 -4.8548164e-02 2.30e+00 3.41e+09  -6.0 2.86e+02    -  4.53e-05 7.74e-03h  1
  47 -4.8445993e-02 2.28e+00 3.38e+09  -6.0 2.67e+02    -  3.78e-03 9.10e-03h  1
  48 -4.8443280e-02 2.28e+00 3.38e+09  -6.0 2.29e+02    -  2.12e-03 2.69e-04h  1
  49 -4.8447259e-02 2.27e+00 3.36e+09  -6.0 1.38e+02    -  4.73e-03 4.76e-03h  1
iter    objective    inf_pr   inf_du lg(mu)  ||d||  lg(rg) alpha_du alpha_pr  ls
  50 -3.9311077e-02 2.17e+00 3.22e+09  -6.0 8.93e+01    -  1.38e-04 4.36e-02h  3
  51 -3.7347452e-02 2.15e+00 3.18e+09  -6.0 8.32e+01    -  6.52e-02 1.19e-02h  5
  52 -3.6907752e-02 2.14e+00 3.17e+09  -6.0 8.11e+01    -  1.23e-01 2.89e-03h  7
  53 -3.6802748e-02 2.14e+00 3.17e+09  -6.0 8.04e+01    -  1.64e-01 7.08e-04h  9
  54 -3.6771290e-02 2.14e+00 3.16e+09  -6.0 8.10e+01    -  1.86e-01 2.06e-04h 11
  55  8.1593520e-03 1.54e+00 2.28e+09  -6.0 8.22e+01    -  1.29e-01 2.80e-01h  1
  56  6.7237489e-03 1.14e+00 1.69e+09  -6.0 5.06e+01    -  2.45e-02 2.58e-01h  1
  57  5.9056885e-03 1.12e+00 1.66e+09  -6.0 3.11e+01    -  1.17e-01 1.75e-02h  1
  58 -2.1701728e-02 6.03e-01 2.61e+08  -6.0 3.52e+01    -  1.28e-02 8.43e-01h  1
  59 -2.4312778e-02 5.49e-01 2.37e+08  -6.0 5.31e+00    -  6.33e-01 8.96e-02h  1
iter    objective    inf_pr   inf_du lg(mu)  ||d||  lg(rg) alpha_du alpha_pr  ls
  60 -4.9031744e-02 9.43e-02 1.12e+07  -6.0 5.51e+00    -  6.82e-01 9.53e-01h  1
  61 -4.9031746e-02 9.43e-02 1.12e+07  -6.0 1.35e+01    -  2.42e-02 1.71e-04h  1
  62 -4.9085632e-02 7.36e-02 8.28e+06  -6.0 3.88e+00    -  2.53e-01 2.58e-01f  1
  63 -4.9415597e-02 5.51e-02 6.94e+04  -6.0 5.17e+00    -  2.79e-01 1.00e+00f  1
  64 -4.9663161e-02 3.54e-02 1.09e+05  -6.0 8.06e+00    -  2.35e-01 3.35e-01h  1
  65r-4.9663161e-02 3.54e-02 1.00e+03  -1.9 0.00e+00    -  0.00e+00 4.42e-07R  4
  66r-4.9666603e-02 2.94e-02 1.02e+03  -1.9 1.19e+03    -  3.88e-04 1.69e-04f  1
  67 -4.9666039e-02 2.72e-02 1.78e+06  -6.0 3.08e-01    -  5.85e-02 7.65e-02h  1
  68 -4.9664839e-02 2.05e-02 1.16e+07  -6.0 3.09e-01    -  7.65e-02 2.47e-01h  1
  69 -4.9664234e-02 1.27e-02 7.15e+06  -6.0 2.37e-01    -  6.70e-01 3.81e-01h  1
iter    objective    inf_pr   inf_du lg(mu)  ||d||  lg(rg) alpha_du alpha_pr  ls
  70 -4.9670163e-02 1.46e-05 1.79e+01  -6.0 1.19e-01    -  9.10e-01 1.00e+00h  1
  71 -4.9921889e-02 9.26e-04 6.69e+01  -6.0 2.05e+00    -  8.12e-01 1.00e+00h  1
  72 -5.1282223e-02 2.33e-03 4.62e+01  -6.0 1.04e+01    -  6.35e-01 1.00e+00H  1
  73 -5.4634493e-02 7.31e-02 3.82e+01  -6.0 2.84e+01    -  1.80e-01 8.56e-01H  1
  74 -5.5695250e-02 8.67e-02 2.46e+01  -6.0 3.63e+01    -  3.52e-01 2.40e-01f  1
  75 -6.2896704e-02 1.41e+00 3.50e+01  -6.0 5.19e+01    -  1.71e-01 1.00e+00f  1
  76 -6.8960638e-02 2.45e+00 3.99e+01  -6.0 5.79e+01    -  6.01e-01 8.72e-01h  1
  77 -7.2122883e-02 2.19e+00 3.53e+01  -6.0 2.94e+02    -  2.36e-01 2.11e-01h  1
  78 -7.2126129e-02 2.09e+00 3.35e+01  -6.0 8.12e-01  -3.3 2.92e-03 4.52e-02h  1
  79 -7.2119028e-02 1.88e+00 3.01e+01  -6.0 1.05e+00  -3.7 1.33e-01 9.75e-02h  1
iter    objective    inf_pr   inf_du lg(mu)  ||d||  lg(rg) alpha_du alpha_pr  ls
  80 -7.2115895e-02 2.23e-02 1.18e+01  -6.0 1.14e+00  -4.2 2.33e-01 1.00e+00f  1
  81 -7.2413000e-02 5.75e-03 1.04e+01  -6.0 1.34e+00  -4.7 5.60e-01 1.00e+00h  1
  82 -7.2520661e-02 5.67e-03 8.88e+00  -6.0 4.02e+00  -5.2 5.09e-01 1.50e-01h  1
  83 -7.2627797e-02 5.52e-03 1.66e+01  -6.0 1.04e+01  -5.6 1.10e-01 6.03e-02f  1
  84 -7.2940862e-02 1.33e-02 1.50e+01  -6.0 2.70e+01  -6.1 1.05e-03 8.30e-02f  1
  85 -7.2924001e-02 1.33e-02 1.47e+01  -6.0 1.32e+03  -6.6 2.50e-06 1.32e-03f  3
  86 -7.3261553e-02 2.27e-02 1.62e+01  -6.0 2.83e+01  -6.2 2.86e-01 8.52e-02h  1
  87 -7.4729273e-02 2.81e-01 1.47e+01  -6.0 5.43e+01  -6.6 2.77e-01 2.21e-01f  1
  88 -7.4919415e-02 2.79e-01 1.55e+01  -6.0 2.07e+02  -7.1 5.60e-02 2.03e-02h  1
  89 -7.5465833e-02 2.22e-01 2.29e+01  -6.0 1.24e+01  -5.8 9.64e-01 3.81e-01h  1
iter    objective    inf_pr   inf_du lg(mu)  ||d||  lg(rg) alpha_du alpha_pr  ls
  90 -7.6932005e-02 5.19e-01 1.81e+01  -6.0 2.79e+01  -6.3 5.24e-01 5.15e-01f  1
  91 -7.9797185e-02 1.95e+00 4.17e+01  -6.0 4.50e+01  -6.7 9.96e-01 7.45e-01h  1
  92 -8.1356217e-02 1.73e+00 7.61e+01  -6.0 1.29e+02  -7.2 5.09e-01 2.69e-01h  1
  93 -8.1694683e-02 1.69e+00 1.57e+02  -6.0 4.23e+02  -7.7 2.65e-01 2.75e-02h  1
  94 -8.1870317e-02 1.55e+00 2.17e+02  -6.0 8.78e+01  -7.3 3.92e-01 7.89e-02h  1
  95 -8.3937425e-02 1.55e+00 1.03e+02  -6.0 2.44e+02  -7.7 4.99e-01 5.19e-01h  1
  96 -8.5145487e-02 8.78e-01 7.62e+01  -6.0 8.91e+01  -7.3 8.24e-01 6.71e-01h  1
  97 -8.7676422e-02 7.56e-01 5.04e+01  -6.0 2.41e+02  -7.8 7.11e-01 8.20e-01h  1
  98 -8.8981678e-02 7.28e-01 6.13e+02  -6.0 5.60e+02  -8.3 3.28e-01 2.05e-01h  1
  99 -9.0429144e-02 3.66e+00 1.12e+03  -6.0 9.66e+03  -8.8 1.19e-01 3.99e-02h  1
iter    objective    inf_pr   inf_du lg(mu)  ||d||  lg(rg) alpha_du alpha_pr  ls
 100 -9.4623679e-02 5.70e+00 1.19e+03  -6.0 8.52e+02  -8.3 2.92e-01 5.11e-01h  1
 101 -9.8018827e-02 1.96e+01 2.10e+03  -6.0 1.22e+04  -8.8 3.98e-02 6.87e-02h  1
 102 -9.8903411e-02 1.39e+01 2.58e+02  -6.0 4.32e+02  -8.4 3.48e-01 3.02e-01h  1
 103 -9.9719266e-02 1.15e+01 1.76e+04  -6.0 4.17e+02  -8.0 4.65e-01 1.81e-01h  1
 104 -1.0413703e-01 1.09e+01 1.75e+07  -6.0 1.16e+03  -8.4 1.06e-03 3.96e-01h  1
 105 -1.0577763e-01 6.78e+00 9.72e+06  -6.0 4.43e+02  -8.0 4.48e-01 4.43e-01h  1
 106 -1.0738059e-01 5.88e+00 7.05e+06  -6.0 8.36e+02  -8.5 1.00e+00 2.74e-01h  1
 107 -1.0801556e-01 4.19e+00 4.74e+06  -6.0 3.50e+02  -8.1 6.91e-01 3.28e-01h  1
 108 -1.0978325e-01 2.92e+00 7.39e+05  -6.0 4.58e+02  -8.5 8.02e-01 8.44e-01h  1
 109 -1.0977098e-01 2.84e+00 7.18e+05  -6.0 2.51e+02  -6.3 2.19e-02 2.86e-02h  1
iter    objective    inf_pr   inf_du lg(mu)  ||d||  lg(rg) alpha_du alpha_pr  ls
 110 -1.0981738e-01 2.11e+00 5.30e+05  -6.0 4.68e+01  -5.9 4.57e-02 2.59e-01h  1
 111 -1.0980495e-01 4.61e-01 1.12e+05  -6.0 1.96e+01  -6.4 3.42e-01 7.81e-01h  1
 112 -1.0986382e-01 4.10e-02 1.65e+02  -6.0 2.21e+01  -6.8 3.05e-02 1.00e+00h  1
 113 -1.1027633e-01 8.63e-02 3.66e+00  -6.0 5.22e+01  -7.3 9.70e-01 1.00e+00h  1
 114 -1.1170541e-01 8.31e-01 8.19e+00  -6.0 2.13e+02  -7.8 9.90e-01 1.00e+00h  1
 115 -1.1226636e-01 7.74e-01 1.23e+02  -6.0 4.03e+02  -8.3 6.70e-01 1.69e-01h  1
 116 -1.1455032e-01 2.21e+00 4.40e+03  -6.0 7.17e+02  -8.7 5.58e-01 4.37e-01h  1
 117 -1.1597440e-01 2.53e+00 1.66e+04  -6.0 2.00e+03  -9.2 2.58e-01 1.30e-01h  1
 118 -1.1654322e-01 2.30e+00 4.54e+04  -6.0 5.62e+02  -8.8 3.78e-01 1.21e-01h  1
 119 -1.1857883e-01 4.05e+00 5.42e+05  -6.0 1.71e+03  -9.3 3.33e-02 2.17e-01h  1
iter    objective    inf_pr   inf_du lg(mu)  ||d||  lg(rg) alpha_du alpha_pr  ls
 120 -1.2008063e-01 6.79e+00 4.95e+05  -6.0 4.29e+03  -9.7 1.64e-02 8.56e-02h  1
 121 -1.2211934e-01 3.94e+00 1.68e+05  -6.0 7.13e+02  -9.3 7.82e-02 6.59e-01h  1
 122 -1.2241908e-01 3.66e+00 1.51e+05  -6.0 7.28e+02  -8.9 3.94e-01 1.06e-01h  1
 123 -1.2258065e-01 2.08e+00 8.42e+04  -6.0 1.93e+02  -8.5 7.32e-01 4.42e-01h  1
 124 -1.2272673e-01 1.69e+00 6.85e+04  -6.0 3.37e+02  -8.9 2.70e-01 1.87e-01h  1
 125 -1.2343536e-01 8.58e-01 3.48e+04  -6.0 7.39e+02  -9.4 5.40e-01 4.94e-01h  1
 126 -1.2349497e-01 8.37e-01 3.40e+04  -6.0 5.56e+02  -9.0 7.17e-02 2.36e-02h  1
 127 -1.2403307e-01 1.10e+00 1.82e+04  -6.0 7.94e+02  -9.5 2.47e-01 4.66e-01h  1
 128 -1.2412591e-01 1.09e+00 1.79e+04  -6.0 3.01e+03  -9.9 9.89e-02 1.95e-02h  1
 129 -1.2508171e-01 3.05e+00 2.41e+03  -6.0 8.54e+02  -9.5 9.53e-01 8.72e-01h  1
iter    objective    inf_pr   inf_du lg(mu)  ||d||  lg(rg) alpha_du alpha_pr  ls
 130 -1.2528056e-01 2.86e+00 2.15e+03  -6.0 1.81e+03 -10.0 4.70e-02 1.09e-01h  1
 131 -1.2528839e-01 2.84e+00 2.13e+03  -6.0 1.15e+03  -9.6 2.82e-01 8.71e-03h  1
 132 -1.2612975e-01 7.53e+00 1.31e+03  -6.0 2.21e+03 -10.1 1.52e-01 3.85e-01h  1
 133 -1.2640100e-01 7.21e+00 1.20e+03  -6.0 8.59e+03 -10.5 2.30e-01 8.61e-02h  1
 134 -1.2682414e-01 6.93e+00 8.74e+02  -6.0 2.73e+03 -10.1 3.12e-01 2.71e-01h  1
 135 -1.2730741e-01 8.34e+00 1.78e+03  -6.0 2.59e+05 -10.6 8.47e-03 5.32e-03h  1
 136 -1.2763342e-01 7.55e+00 7.87e+02  -6.0 2.17e+03  -9.2 1.87e-02 9.54e-02h  1
 137 -1.2778205e-01 6.50e+00 2.97e+03  -6.0 3.21e+02  -8.8 5.94e-01 1.39e-01h  1
 138 -1.2786552e-01 5.74e+00 2.88e+03  -6.0 2.41e+02  -8.4 2.39e-01 1.16e-01h  1
 139 -1.2818892e-01 4.92e+00 1.80e+03  -6.0 1.37e+03  -8.9 7.00e-02 1.44e-01h  1
iter    objective    inf_pr   inf_du lg(mu)  ||d||  lg(rg) alpha_du alpha_pr  ls
 140 -1.2956516e-01 6.45e+01 5.45e+03  -6.0 8.74e+02  -9.4 1.59e-01 3.74e-01h  1
 141 -1.3047677e-01 4.54e+01 6.98e+03  -6.0 1.84e+03  -9.8 2.58e-01 3.37e-01h  1
 142 -1.3237685e-01 3.91e+01 3.65e+04  -6.0 4.61e+03 -10.3 1.85e-02 3.14e-01h  1
 143 -1.3249516e-01 3.77e+01 8.08e+03  -6.0 2.95e+03  -9.9 1.88e-01 3.67e-02h  1
 144 -1.3266719e-01 3.51e+01 3.02e+04  -6.0 2.38e+03 -10.4 3.43e-01 6.72e-02h  1
 145 -1.3283928e-01 3.23e+01 3.58e+04  -6.0 6.68e+03 -10.8 2.03e-01 8.04e-02h  1
 146 -1.3290825e-01 3.19e+01 3.99e+06  -6.0 1.54e+04 -11.3 3.57e-04 1.18e-02h  1
 147 -1.3288537e-01 3.19e+01 3.99e+06  -6.0 4.49e+06 -11.8 2.20e-04 3.01e-04f  1
 148 -1.3302618e-01 4.13e+01 3.51e+06  -6.0 1.39e+04    -  6.64e-02 1.22e-01h  1
 149 -1.3308172e-01 3.79e+01 3.22e+06  -6.0 4.78e+03    -  1.38e-01 8.29e-02h  1
iter    objective    inf_pr   inf_du lg(mu)  ||d||  lg(rg) alpha_du alpha_pr  ls
 150 -1.3308215e-01 3.78e+01 3.21e+06  -6.0 6.27e+02  -9.6 1.62e-03 1.74e-03h  1
 151 -1.3316747e-01 2.76e+01 2.27e+06  -6.0 1.10e+03 -10.0 2.09e-03 2.92e-01f  1
 152 -1.3321155e-01 2.41e+01 1.93e+06  -6.0 1.73e+03 -10.5 1.51e-01 1.53e-01h  1
 153 -1.3323223e-01 2.26e+01 1.80e+06  -6.0 9.98e+03    -  2.49e-01 6.55e-02h  1
 154 -1.3340065e-01 4.78e+01 5.90e+05  -6.0 2.57e+03    -  1.60e-01 6.72e-01h  1
 155 -1.3341018e-01 2.01e+01 2.43e+05  -6.0 4.70e+02 -10.1 4.90e-01 5.89e-01h  1
 156 -1.3339626e-01 1.71e+01 2.07e+05  -6.0 1.02e+03 -10.6 6.14e-01 1.46e-01h  1
 157 -1.3339518e-01 3.61e+01 3.01e+06  -6.0 4.03e+03 -11.0 3.29e-03 4.06e-01h  1
 158 -1.3339319e-01 3.72e+01 3.00e+06  -6.0 8.08e+04    -  2.69e-04 3.93e-03h  4
 159 -1.3338772e-01 3.47e+01 2.69e+06  -6.0 3.31e+03 -10.6 1.74e-01 1.03e-01h  1
iter    objective    inf_pr   inf_du lg(mu)  ||d||  lg(rg) alpha_du alpha_pr  ls
 160 -1.3334599e-01 1.55e-01 1.50e+02  -6.0 1.91e+03    -  4.83e-04 1.00e+00H  1
 161 -1.3334743e-01 3.69e-04 4.43e-02  -6.0 1.13e+00  -6.6 1.00e+00 1.00e+00h  1
 162 -1.3330415e-01 3.38e+01 6.68e+00  -6.0 2.13e+03    -  1.00e+00 7.77e-01h  1
 163 -1.3330364e-01 3.38e+01 5.03e+00  -6.0 2.04e+04    -  1.55e-04 4.78e-03H  1
 164 -1.3327744e-01 8.73e+00 6.10e-01  -6.0 8.38e+02    -  1.00e+00 1.00e+00h  1
 165 -1.3327678e-01 6.83e-03 6.30e-01  -6.0 7.68e-01  -7.1 7.68e-01 1.00e+00h  1
 166 -1.3327670e-01 1.76e-05 1.74e-05  -6.0 3.99e-01  -7.5 1.00e+00 1.00e+00h  1
 167 -1.3327667e-01 1.59e-04 2.64e-05  -6.0 1.21e+00  -8.0 1.00e+00 1.00e+00h  1
 168 -1.3327659e-01 1.44e-03 5.79e-05  -6.0 3.74e+00  -8.5 1.00e+00 1.00e+00h  1
 169 -1.3327650e-01 1.31e-02 1.43e-04  -6.0 1.24e+01  -9.0 1.00e+00 1.00e+00h  1
iter    objective    inf_pr   inf_du lg(mu)  ||d||  lg(rg) alpha_du alpha_pr  ls
 170 -1.3327657e-01 1.01e-01 1.16e-03  -6.0 4.71e+01  -9.4 1.00e+00 1.00e+00h  1
 171 -1.3327706e-01 3.57e-01 1.66e-02  -6.0 1.74e+02  -9.9 1.00e+00 1.00e+00h  1
 172 -1.3327722e-01 5.46e-01 4.05e+01  -6.0 8.00e+03    -  3.47e-01 1.61e-02h  2
 173 -1.3327420e-01 1.10e+00 1.28e+01  -6.0 7.34e+02    -  1.00e+00 3.42e-01h  2
 174 -1.3327510e-01 9.86e-01 7.74e+00  -6.0 4.69e+02    -  5.11e-01 2.70e-01h  2
 175 -1.3327732e-01 4.06e-02 4.11e-03  -6.0 6.02e+01    -  1.00e+00 1.00e+00h  1
 176 -1.3327742e-01 3.05e-03 1.66e-04  -6.0 1.63e+01    -  1.00e+00 1.00e+00h  1
 177 -1.3327742e-01 1.05e-05 5.40e-07  -6.0 9.51e-01    -  1.00e+00 1.00e+00h  1
 178 -1.3378825e-01 2.10e+00 5.15e+01  -7.5 2.25e+03    -  1.30e-01 3.00e-01h  1
 179 -1.3424191e-01 8.01e+00 7.83e+01  -7.5 3.62e+03    -  1.59e-01 3.18e-01h  1
iter    objective    inf_pr   inf_du lg(mu)  ||d||  lg(rg) alpha_du alpha_pr  ls
 180 -1.3453891e-01 1.50e+01 9.18e+01  -7.5 4.83e+03    -  1.54e-01 2.28e-01h  1
 181 -1.3462431e-01 1.44e+01 8.54e+01  -7.5 5.25e+03 -10.4 8.47e-02 6.91e-02h  1
 182 -1.3470714e-01 8.23e+00 8.91e+01  -7.5 2.39e+02  -9.1 2.65e-01 4.33e-01h  1
 183 -1.3473312e-01 7.86e+00 7.14e+01  -7.5 8.92e+02  -9.5 3.84e-01 4.53e-02h  1
 184 -1.3487956e-01 8.06e+00 5.88e+01  -7.5 1.65e+03 -10.0 8.57e-02 2.29e-01h  1
 185 -1.3512141e-01 2.15e+01 5.56e+01  -7.5 4.61e+03    -  1.12e-01 1.91e-01h  1
 186 -1.3513379e-01 2.09e+01 9.27e+01  -7.5 2.92e+01  -6.9 7.07e-01 3.08e-02h  1
 187 -1.3522660e-01 2.03e+01 1.22e+02  -7.5 2.67e+03    -  2.79e-02 1.31e-01h  1
 188 -1.3525807e-01 1.96e+01 5.62e+01  -7.5 2.57e+03    -  3.50e-01 4.67e-02h  1
 189 -1.3553965e-01 3.31e+01 3.27e+01  -7.5 2.47e+03    -  2.28e-01 4.72e-01h  1
iter    objective    inf_pr   inf_du lg(mu)  ||d||  lg(rg) alpha_du alpha_pr  ls
 190 -1.3586123e-01 2.76e+01 8.63e+01  -7.5 1.35e+03    -  3.40e-02 1.00e+00h  1
 191 -1.3595060e-01 1.96e+01 1.35e+02  -7.5 1.20e+03    -  2.03e-01 3.24e-01h  1
 192 -1.3599676e-01 1.07e+02 1.72e+02  -7.5 3.89e+04    -  3.57e-02 7.87e-02h  1
 193 -1.3603317e-01 9.84e+01 1.74e+02  -7.5 3.05e+03    -  6.27e-02 7.86e-02h  1
 194 -1.3608476e-01 9.14e+01 1.74e+02  -7.5 4.88e+03    -  9.39e-02 1.11e-01h  1
 195 -1.3613879e-01 9.64e+01 2.36e+02  -7.5 3.09e+04    -  4.14e-02 9.38e-02h  1
 196 -1.3626440e-01 6.83e+01 4.97e+02  -7.5 2.68e+03    -  6.85e-02 2.92e-01h  1
 197 -1.3633741e-01 5.47e+01 8.59e+02  -7.5 1.09e+01  -7.4 7.70e-03 2.00e-01h  1
 198 -1.3643405e-01 7.26e+01 1.01e+03  -7.5 6.53e+03    -  1.29e-01 2.37e-01h  1
 199 -1.3643625e-01 7.22e+01 9.71e+02  -7.5 1.36e+02  -7.8 2.12e-02 6.08e-03h  1
iter    objective    inf_pr   inf_du lg(mu)  ||d||  lg(rg) alpha_du alpha_pr  ls
 200 -1.3645236e-01 6.88e+01 4.22e+03  -7.5 7.03e+02  -8.3 3.84e-03 4.65e-02h  1
 201 -1.3650213e-01 5.85e+01 4.98e+03  -7.5 2.83e+02  -8.8 4.95e-02 1.51e-01h  1
 202 -1.3683058e-01 2.65e+00 4.13e+03  -7.5 4.49e+01  -9.3 3.56e-01 1.00e+00h  1
 203 -1.3706483e-01 1.36e+00 8.08e+03  -7.5 1.36e+02  -9.7 3.09e-01 5.96e-01h  1
 204 -1.3707079e-01 1.23e+00 4.35e+06  -7.5 1.39e+03 -10.2 2.10e-04 8.77e-02h  1
 205 -1.3725561e-01 6.57e+00 1.27e+06  -7.5 8.05e+02 -10.7 1.32e-01 7.07e-01h  1
 206 -1.3725557e-01 6.53e+00 1.26e+06  -7.5 1.91e+03 -11.2 3.24e-03 5.77e-03h  1
 207 -1.3726244e-01 7.36e+00 1.19e+06  -7.5 1.12e+04 -11.7 6.31e-02 6.02e-02f  1
 208 -1.3728126e-01 9.05e+00 1.07e+06  -7.5 5.80e+03 -11.2 9.75e-02 1.02e-01h  1
 209 -1.3732058e-01 3.87e+01 9.11e+05  -7.5 1.08e+04 -11.7 1.36e-01 1.46e-01h  1
iter    objective    inf_pr   inf_du lg(mu)  ||d||  lg(rg) alpha_du alpha_pr  ls
 210 -1.3733982e-01 2.75e+01 6.14e+05  -7.5 2.53e+03 -11.3 2.04e-01 3.26e-01h  1
 211 -1.3736146e-01 3.34e+01 5.69e+05  -7.5 1.08e+04 -11.8 2.28e-01 7.40e-02h  1
 212 -1.3736662e-01 3.44e+01 5.38e+05  -7.5 8.86e+03    -  1.41e-01 5.48e-02h  1
 213 -1.3736885e-01 3.38e+01 5.29e+05  -7.5 1.59e+04    -  1.63e-01 1.68e-02h  1
 214 -1.3737005e-01 3.05e+01 4.73e+05  -7.5 1.96e+03    -  7.83e-02 1.04e-01h  1
 215 -1.3737062e-01 2.97e+01 4.62e+05  -7.5 1.18e+03 -11.3 1.42e-02 2.43e-02h  1
 216 -1.3737282e-01 2.78e+01 4.31e+05  -7.5 3.23e+03 -11.8 4.86e-01 6.64e-02f  1
 217 -1.3737872e-01 5.65e+01 3.96e+05  -7.5 2.40e+04    -  2.74e-02 8.13e-02h  1
 218 -1.3739026e-01 4.16e+01 2.77e+05  -7.5 1.50e+03    -  1.19e-01 3.00e-01h  1
 219 -1.3739241e-01 4.15e+01 2.72e+05  -7.5 1.24e+04 -12.3 6.29e-03 2.00e-02h  1
iter    objective    inf_pr   inf_du lg(mu)  ||d||  lg(rg) alpha_du alpha_pr  ls
 220 -1.3744604e-01 1.78e+01 7.07e+04  -7.5 1.40e+03    -  1.93e-01 7.37e-01h  1
 221 -1.3752847e-01 1.47e+01 5.07e+04  -7.5 1.75e+03    -  4.00e-01 2.81e-01h  1
 222 -1.3761311e-01 1.38e+01 4.04e+04  -7.5 1.83e+03    -  5.80e-01 2.02e-01h  1
 223 -1.3761941e-01 1.42e+01 3.25e+04  -7.5 2.28e+03    -  1.00e+00 1.96e-01h  1
 224 -1.3763785e-01 1.81e+01 2.49e+04  -7.5 2.99e+03    -  2.20e-01 2.33e-01h  1
 225 -1.3764100e-01 1.82e+01 2.41e+04  -7.5 6.59e+03    -  9.06e-02 3.46e-02h  1
 226 -1.3764116e-01 1.82e+01 2.41e+04  -7.5 2.17e+05 -12.8 4.24e-03 4.42e-04H  1
 227 -1.3764085e-01 1.87e+01 2.40e+04  -7.5 1.83e+05    -  3.52e-04 1.03e-03f  4
 228 -1.3764406e-01 1.86e+01 2.30e+04  -7.5 5.26e+03    -  1.11e-02 4.17e-02h  1
 229 -1.3765984e-01 1.71e+01 1.77e+04  -7.5 2.09e+03 -12.3 2.59e-01 2.32e-01h  1
iter    objective    inf_pr   inf_du lg(mu)  ||d||  lg(rg) alpha_du alpha_pr  ls
 230 -1.3766007e-01 7.00e+01 1.56e+04  -7.5 2.06e+04    -  2.66e-02 1.17e-01h  1
 231 -1.3766510e-01 6.50e+01 1.45e+04  -7.5 5.03e+03    -  1.23e-01 7.19e-02h  1
 232 -1.3767132e-01 5.91e+01 1.31e+04  -7.5 2.94e+03    -  9.49e-03 9.45e-02h  1
 233 -1.3768108e-01 4.99e+01 1.11e+04  -7.5 4.13e+03    -  2.41e-01 1.57e-01h  1
 234 -1.3770000e-01 3.65e+01 7.59e+03  -7.5 3.24e+03    -  1.27e-02 3.16e-01h  1
 235 -1.3772549e-01 5.32e+01 3.49e+03  -7.5 3.28e+03    -  5.91e-02 5.44e-01h  1
 236 -1.3773333e-01 5.06e+01 2.82e+03  -7.5 4.16e+03 -11.9 3.95e-01 1.93e-01h  1
 237 -1.3773525e-01 4.86e+01 2.66e+03  -7.5 4.84e+03    -  4.68e-01 5.67e-02h  1
 238 -1.3773777e-01 4.58e+01 2.46e+03  -7.5 3.62e+03    -  1.76e-02 7.43e-02h  1
 239 -1.3773848e-01 4.45e+01 2.38e+03  -7.5 4.86e+03    -  6.81e-02 3.42e-02h  1
iter    objective    inf_pr   inf_du lg(mu)  ||d||  lg(rg) alpha_du alpha_pr  ls
 240 -1.3774391e-01 4.11e+01 2.19e+03  -7.5 1.09e+04    -  6.57e-02 7.80e-02h  2
 241 -1.3775882e-01 1.37e+01 7.40e+02  -7.5 5.91e+02    -  1.01e-01 6.66e-01h  1
 242 -1.3776423e-01 1.17e+01 6.16e+02  -7.5 9.94e+03    -  2.54e-03 1.67e-01H  1
 243 -1.3776764e-01 3.21e+01 1.62e+01  -7.5 1.66e+03    -  6.27e-01 1.00e+00h  1
 244 -1.3777017e-01 2.25e+01 1.30e+01  -7.5 1.16e+03    -  2.78e-01 3.62e-01h  1
 245 -1.3777120e-01 8.49e+00 4.46e+00  -7.5 8.00e+01    -  1.00e+00 6.23e-01h  1
 246 -1.3777161e-01 7.37e+00 1.28e+01  -7.5 4.63e+02    -  1.00e+00 1.37e-01h  1
 247 -1.3777300e-01 1.64e+00 3.90e+00  -7.5 2.70e+02    -  7.40e-01 8.61e-01h  1
 248 -1.3777356e-01 1.55e+00 2.23e+02  -7.5 7.52e+02    -  3.86e-02 1.70e-01h  1
 249 -1.3777414e-01 1.30e+00 1.96e+02  -7.5 4.23e+02    -  1.50e-02 1.16e-01H  1
iter    objective    inf_pr   inf_du lg(mu)  ||d||  lg(rg) alpha_du alpha_pr  ls
 250 -1.3777454e-01 1.64e-01 1.92e+02  -7.5 3.04e+03 -11.5 2.21e-02 2.03e-02F  1
 251 -1.3777699e-01 3.19e+00 1.24e+02  -7.5 1.50e+03 -12.0 3.01e-01 3.49e-01h  1
 252 -1.3777722e-01 3.07e+00 1.18e+02  -7.5 1.03e+03    -  2.97e-02 4.82e-02h  1
 253 -1.3777561e-01 4.61e-01 4.31e-01  -7.5 1.97e+02    -  1.00e+00 1.00e+00f  1
 254 -1.3777613e-01 5.68e-01 5.62e-01  -7.5 6.02e+03    -  1.25e-01 1.65e-02h  2
 255 -1.3777640e-01 6.27e-02 4.84e-02  -7.5 7.42e+01    -  1.00e+00 1.00e+00h  1
 256 -1.3777641e-01 1.20e-04 1.78e-04  -7.5 3.29e+00    -  1.00e+00 1.00e+00h  1
 257 -1.3777641e-01 1.04e-06 7.45e-07  -7.5 3.00e-01    -  1.00e+00 1.00e+00h  1
 258 -1.3777641e-01 2.78e-10 2.43e-12  -7.5 8.43e-05    -  1.00e+00 1.00e+00h  1
 259 -1.3777866e-01 8.43e-02 3.11e+00  -9.0 2.13e+02    -  4.67e-01 2.78e-01h  1
iter    objective    inf_pr   inf_du lg(mu)  ||d||  lg(rg) alpha_du alpha_pr  ls
 260 -1.3778186e-01 3.08e+00 3.18e+01  -9.0 1.39e+03 -11.5 6.67e-01 2.82e-01h  1
 261 -1.3778878e-01 3.49e+01 9.74e+01  -9.0 1.30e+04 -12.0 2.50e-02 9.70e-02h  1
 262 -1.3779657e-01 4.42e+01 1.10e+02  -9.0 4.07e+03 -11.6 3.46e-01 3.24e-01h  1
 263 -1.3780029e-01 4.28e+01 9.62e+01  -9.0 3.69e+03    -  3.15e-04 1.31e-01h  1
 264 -1.3781047e-01 2.89e+01 5.50e+02  -9.0 1.26e+03    -  2.21e-02 7.90e-01h  1
 265 -1.3781827e-01 2.67e+00 2.38e+01  -9.0 3.37e+02 -10.3 4.00e-01 1.00e+00h  1
 266 -1.3782197e-01 3.25e+00 1.96e+01  -9.0 1.28e+03 -10.7 8.68e-01 1.78e-01h  1
 267 -1.3782119e-01 4.03e-01 1.71e+00  -9.0 9.00e+01    -  1.00e+00 9.16e-01h  1
 268 -1.3782177e-01 3.76e-02 1.08e-01  -9.0 3.43e+01    -  1.00e+00 9.64e-01h  1
 269 -1.3782176e-01 3.24e-06 1.04e-04  -9.0 4.34e-01    -  1.00e+00 1.00e+00h  1
iter    objective    inf_pr   inf_du lg(mu)  ||d||  lg(rg) alpha_du alpha_pr  ls
 270 -1.3782176e-01 4.19e-09 1.14e-09  -9.0 1.43e-02    -  1.00e+00 1.00e+00h  1

Number of Iterations....: 270

                                   (scaled)                 (unscaled)
Objective...............:  -1.3782175828988399e-01   -1.3782175828988399e-01
Dual infeasibility......:   1.1424253487657410e-09    1.1424253487657410e-09
Constraint violation....:   2.0613028038745425e-09    4.1909515857696533e-09
Complementarity.........:   9.0911989936077750e-10    9.0911989936077750e-10
Overall NLP error.......:   2.0613028038745425e-09    4.1909515857696533e-09


Number of objective function evaluations             = 401
Number of objective gradient evaluations             = 270
Number of equality constraint evaluations            = 406
Number of inequality constraint evaluations          = 402
Number of equality constraint Jacobian evaluations   = 278
Number of inequality constraint Jacobian evaluations = 278
Number of Lagrangian Hessian evaluations             = 270
Total CPU secs in IPOPT (w/o function evaluations)   =    112.039
Total CPU secs in NLP function evaluations           =      4.422

EXIT: Optimal Solution Found.
